clingo version 5.2.2
Reading from ...coloring/instances/2-FullIns_3-k_10.lp ...
Solving...
Optimization: 171642
Optimization: 171361
Optimization: 158337
Optimization: 157671
Optimization: 157643
Optimization: 157495
Optimization: 157490
Optimization: 157486
Optimization: 146081
Optimization: 145711
Optimization: 145563
Optimization: 145554
Optimization: 145442
Optimization: 145109
Optimization: 144841
Optimization: 144836
Optimization: 144832
Optimization: 144787
Optimization: 110207
Optimization: 110149
Optimization: 105329
Optimization: 103202
Optimization: 102709
Optimization: 102601
Optimization: 102525
Optimization: 102032
Optimization: 101980
Optimization: 101929
Optimization: 101845
Optimization: 101757
Optimization: 101667
Optimization: 101659
Optimization: 101613
Optimization: 76112
Optimization: 75000
Optimization: 74994
Optimization: 74945
Optimization: 74866
Optimization: 74842
Optimization: 74841
Optimization: 74805
Optimization: 74514
Optimization: 74513
Optimization: 74499
Optimization: 74459
Optimization: 74452
Optimization: 74434
Optimization: 74427
Optimization: 74417
Optimization: 74315
Optimization: 73934
Optimization: 73137
Optimization: 73020
Optimization: 73008
Optimization: 72804
Optimization: 72730
Optimization: 72664
Optimization: 72514
Optimization: 72490
Optimization: 72424
Optimization: 72373
Optimization: 72371
Optimization: 72332
Optimization: 72248
Optimization: 72244
Optimization: 72193
Optimization: 72191
Optimization: 72152
Optimization: 72128
Optimization: 72068
Optimization: 72024
Optimization: 71995
Optimization: 71972
Optimization: 71957
Optimization: 71947
Optimization: 71945
Optimization: 71940
Optimization: 71933
Optimization: 71925
Optimization: 71913
Optimization: 71911
Optimization: 71893
Optimization: 71466
Optimization: 71338
Optimization: 71332
Optimization: 71328
Optimization: 71231
Optimization: 71220
Optimization: 71182
Optimization: 71165
Optimization: 71163
Optimization: 71161
Optimization: 71157
Optimization: 71156
Optimization: 71149
Optimization: 71148
Optimization: 71138
Optimization: 71133
Optimization: 71132
Optimization: 71118
Optimization: 71112
Optimization: 71106
Optimization: 71058
Optimization: 71052
Optimization: 71046
Optimization: 71044
Optimization: 71038
Optimization: 71037
Optimization: 71023
Optimization: 71017
Optimization: 71014
Optimization: 70993
Optimization: 70984
Optimization: 70975
Optimization: 70973
Optimization: 70970
Optimization: 70969
Optimization: 70967
Optimization: 70960
Optimization: 70958
Optimization: 70957
Optimization: 70956
Optimization: 70952
Optimization: 70951
Optimization: 70948
Optimization: 70947
Optimization: 70942
Optimization: 70939
Optimization: 70934
Optimization: 70932
Optimization: 70928
Optimization: 70890
Optimization: 70886
Optimization: 70884
Optimization: 70880
Optimization: 70878
Optimization: 70876
Optimization: 70874
Optimization: 70872
Optimization: 70870
Optimization: 70869
Optimization: 70868
Optimization: 70867
Optimization: 70866
Optimization: 70864
Optimization: 70862
Optimization: 70860
Optimization: 70858
Optimization: 70856
Optimization: 70852
SATISFIABLE

TIME LIMIT   : 1
Models       : 150+
  Optimum    : unknown
Optimization : 70852
Calls        : 1
Time         : 3600.018s (Solving: 3599.97s 1st Model: 0.03s Unsat: 0.00s)
CPU Time     : 71982.514s
Threads      : 20       (Winner: 20)
elapsed time for 2-FullIns_3-k_10 was 3600.203213537 seconds
